WARNING: for repeatability, setting FPU to use double precision
============================[ Problem Statistics ]=============================
|                                                                             |
|  Number of variables:           202                                         |
|  Number of clauses:            3643                                         |
|  Parse time:                   0.00 s                                       |
|                                                                             |
============================[ Search Statistics ]==============================
| Conflicts |          ORIGINAL         |          LEARNT          | Progress |
|           |    Vars  Clauses Literals |    Limit  Clauses Lit/Cl |          |
===============================================================================
|       100 |     200     3643    23626 |     1335      100     12 |  0.993 % |
===============================================================================
restarts              : 2
conflicts             : 111            (10012 /sec)
decisions             : 667            (0.00 % random) (60161 /sec)
propagations          : 1053           (94976 /sec)
conflict literals     : 1270           (10.12 % deleted)
Memory used           : 6.00 MB
CPU time              : 0.011087 s

SATISFIABLE
